c description: Random 3-CNF over 10 variables and 30 clauses
p cnf 10 30
-4 6 8 0
1 8 -9 0
1 2 6 0
2 -3 6 0
3 -5 -10 0
-1 3 -5 0
-2 3 4 0
-1 3 8 0
-6 7 8 0
4 -8 -10 0
-1 6 8 0
-7 -8 9 0
5 -8 -10 0
5 8 9 0
5 6 9 0
5 -7 10 0
-5 8 10 0
2 5 8 0
5 6 -9 0
5 -7 9 0
1 -2 8 0
3 -5 8 0
2 4 9 0
-5 6 10 0
2 6 -8 0
-1 -4 -5 0
1 4 -5 0
7 9 -10 0
1 6 -7 0
-2 3 7 0